(set-option :auto-config true)
(set-option :produce-models true)
(set-option :soft-timeout 50)

(declare-datatypes () ((Nat zero (succ (pred Nat)))))
(declare-fun p (Nat) Bool)
(assert (p zero))
(assert (forall ((x Nat)) (implies (p (pred x)) (p x))))
(assert (not (forall ((x Nat)) (p x))))
(check-sat)
